JulietBench/Juliet_Based_Patch_Bench/FFmpeg/CWE-189-Numeric-Errors/CVE_2011_4031_c2a2ad133eb9d42361804a568dee336992349a5e/solverasfrtp_parse_packet_Snippet_patch2.smt2
; benchmark generated from python API
(set-info :status unknown)
(declare-fun R () (_ BitVec 32))
(declare-fun rdi () (_ BitVec 64))
(assert
 (let (($x166 (and (distinct (_ bv0 32) R) true)))
 (let (($x49 (= (_ bv0 32) R)))
 (let ((?x6 ((_ extract 31 0) rdi)))
 (let (($x14 (bvsge (_ bv0 32) ?x6)))
 (let (($x46 (and $x14 $x49)))
 (let (($x51 (= (_ bv4294967295 32) R)))
 (let (($x44 (bvslt (_ bv0 32) ?x6)))
 (let (($x48 (bvsge (_ bv3 32) ?x6)))
 (let (($x52 (and $x48 $x44 $x51)))
 (let (($x160 (bvslt (_ bv3 32) ?x6)))
 (let (($x56 (and $x160 $x44 $x49)))
 (let (($x47 (or $x56 $x52 $x46)))
 (let (($x165 (not $x47)))
 (let (($x167 (and $x165 $x166)))
 (let (($x164 (and $x47 $x49)))
 (let (($x168 (or $x164 $x167)))
 (not $x168))))))))))))))))))
(check-sat)
